p cnf 36 114
-2 -4 0
-2 -3 0
-2 -7 0
-4 -3 0
-4 -7 0
-3 -7 0
-11 -13 0
-11 -12 0
-11 -16 0
-13 -12 0
-13 -16 0
-12 -16 0
-20 -22 0
-20 -21 0
-20 -25 0
-22 -21 0
-22 -25 0
-21 -25 0
-29 -31 0
-29 -30 0
-29 -34 0
-31 -30 0
-31 -34 0
-30 -34 0
-4 -2 0
-4 -6 0
-4 -8 0
-2 -6 0
-2 -8 0
-6 -8 0
-13 -11 0
-13 -15 0
-13 -17 0
-11 -15 0
-11 -17 0
-15 -17 0
-22 -20 0
-22 -24 0
-22 -26 0
-20 -24 0
-20 -26 0
-24 -26 0
-31 -29 0
-31 -33 0
-31 -35 0
-29 -33 0
-29 -35 0
-33 -35 0
-7 -3 0
-7 -8 0
-7 -6 0
-3 -8 0
-3 -6 0
-8 -6 0
-16 -12 0
-16 -17 0
-16 -15 0
-12 -17 0
-12 -15 0
-17 -15 0
-25 -21 0
-25 -26 0
-25 -24 0
-21 -26 0
-21 -24 0
-26 -24 0
-34 -30 0
-34 -35 0
-34 -33 0
-30 -35 0
-30 -33 0
-35 -33 0